70
1 0 139
2 0 194
3 0 121
3 1 105
3 2 68
4 0 32
4 3 202
5 0 320
5 1 19
5 2 307
5 3 122
5 4 306
6 1 184
6 2 37
6 3 281
6 4 19
6 5 320
7 0 318
7 1 196
7 2 104
7 3 87
7 5 295
7 6 73
8 0 305
8 1 152
8 2 299
8 3 279
8 4 255
8 5 186
8 6 270
8 7 319
9 0 148
9 1 78
9 2 6
9 3 67
9 4 258
9 5 254
9 6 138
9 7 43
9 8 287
10 1 254
10 2 22
10 3 103
10 4 76
10 5 206
10 6 177
10 7 91
10 9 70
11 0 285
11 1 55
11 2 304
11 3 210
11 4 228
11 5 277
11 6 221
11 8 3
11 9 229
11 10 28
12 1 191
12 2 16
12 3 53
12 4 77
12 5 304
12 6 209
12 7 176
12 9 206
12 10 310
12 11 81
13 0 145
13 1 147
13 2 139
13 3 230
13 4 47
13 5 267
13 6 147
13 7 294
13 8 107
13 10 17
13 11 155
13 12 9
14 0 247
14 1 1
14 2 296
14 3 85
14 4 33
14 5 268
14 6 181
14 7 318
14 8 51
14 9 320
14 10 317
14 11 303
14 12 124
14 13 183
15 0 107
15 1 257
15 2 63
15 3 8
15 4 5
15 6 121
15 7 235
15 8 81
15 9 157
15 10 80
15 11 317
15 12 29
15 14 64
16 0 154
16 1 230
16 2 158
16 3 83
16 4 188
16 5 10
16 6 236
16 7 180
16 9 181
16 10 170
16 11 90
16 12 285
16 13 261
16 14 290
16 15 316
17 0 13
17 1 206
17 2 208
17 3 154
17 4 25
17 5 208
17 6 267
17 7 62
17 8 102
17 9 161
17 10 259
17 11 128
17 13 156
17 14 140
17 15 279
17 16 92
18 0 241
18 1 285
18 2 306
18 3 126
18 4 23
18 6 255
18 7 244
18 8 62
18 9 208
18 10 160
18 11 20
18 12 158
18 14 16
18 15 281
18 16 287
18 17 125
19 0 160
19 1 116
19 2 67
19 3 97
19 5 164
19 6 302
19 7 80
19 8 215
19 9 250
19 10 281
19 11 176
19 12 281
19 13 74
19 14 203
19 15 90
19 16 4
19 17 129
19 18 291
20 0 101
20 1 28
20 2 112
20 4 18
20 5 273
20 6 101
20 7 176
20 8 50
20 9 94
20 10 249
20 11 77
20 12 314
20 13 184
20 14 14
20 15 7
20 16 288
20 18 167
20 19 105
21 0 21
21 1 254
21 2 62
21 3 118
21 4 216
21 5 170
21 6 314
21 8 125
21 9 217
21 10 248
21 12 77
21 13 49
21 14 305
21 15 43
21 17 229
21 18 214
21 19 68
21 20 203
22 0 318
22 1 302
22 2 138
22 4 123
22 5 313
22 6 199
22 7 9
22 8 135
22 9 205
22 10 123
22 11 206
22 12 252
22 13 151
22 14 205
22 15 316
22 16 224
22 17 251
22 19 74
22 20 273
22 21 36
23 0 144
23 1 123
23 3 73
23 4 102
23 5 143
23 6 309
23 7 8
23 8 245
23 9 274
23 11 159
23 12 3
23 13 112
23 14 81
23 15 198
23 17 197
23 18 155
23 19 216
23 20 230
23 21 186
23 22 261
24 0 267
24 1 99
24 6 263
24 7 77
24 9 269
24 10 55
24 11 239
24 12 271
24 13 69
24 14 243
24 16 194
24 17 247
24 18 9
24 19 218
24 20 186
24 21 155
24 22 147
24 23 296
25 0 25
25 1 21
25 2 56
25 3 295
25 4 195
25 5 145
25 6 135
25 7 49
25 8 241
25 9 211
25 10 47
25 11 243
25 12 201
25 13 57
25 15 187
25 16 207
25 17 10
25 18 267
25 19 196
25 20 31
25 21 26
25 22 123
25 23 161
25 24 150
26 1 48
26 2 220
26 3 160
26 4 56
26 5 138
26 6 25
26 8 225
26 9 48
26 10 201
26 12 30
26 13 310
26 15 43
26 16 144
26 17 249
26 19 77
26 20 252
26 21 50
26 23 102
26 24 128
26 25 41
27 0 299
27 2 107
27 4 242
27 5 56
27 7 25
27 8 59
27 9 11
27 10 196
27 11 83
27 12 196
27 13 209
27 14 168
27 15 199
27 16 140
27 17 218
27 18 171
27 19 259
27 20 275
27 21 114
27 22 189
27 23 281
27 25 188
27 26 107
28 0 188
28 1 261
28 2 318
28 3 287
28 4 319
28 5 60
28 6 282
28 7 130
28 8 264
28 10 34
28 13 232
28 14 207
28 15 272
28 16 114
28 17 21
28 20 183
28 21 91
28 22 219
28 23 49
28 25 244
28 26 141
28 27 141
29 0 76
29 1 108
29 2 80
29 3 259
29 4 269
29 5 313
29 7 171
29 8 127
29 10 204
29 11 283
29 13 94
29 14 290
29 16 79
29 17 70
29 19 73
29 20 279
29 21 58
29 23 223
29 24 255
29 25 317
29 26 76
29 27 17
29 28 182
30 0 84
30 1 281
30 2 46
30 3 196
30 4 153
30 5 25
30 7 252
30 8 137
30 9 164
30 10 289
30 11 81
30 12 261
30 14 206
30 15 17
30 16 42
30 17 212
30 18 318
30 19 73
30 20 189
30 21 88
30 22 80
30 23 102
30 24 100
30 25 304
30 26 31
30 27 10
30 28 8
30 29 106
31 0 239
31 1 274
31 2 222
31 3 292
31 4 144
31 5 39
31 6 97
31 7 209
31 9 270
31 10 94
31 12 21
31 13 54
31 14 267
31 15 166
31 16 73
31 17 211
31 18 54
31 19 5
31 20 120
31 21 174
31 22 223
31 23 242
31 24 35
31 25 165
31 26 256
31 27 230
31 28 116
31 29 201
31 30 85
32 0 190
32 1 194
32 4 219
32 5 240
32 6 6
32 7 130
32 8 114
32 9 266
32 10 171
32 11 244
32 12 100
32 13 275
32 14 6
32 16 140
32 17 70
32 19 3
32 20 259
32 21 151
32 22 53
32 23 232
32 24 45
32 25 80
32 26 277
32 27 99
32 28 94
32 29 317
32 30 286
32 31 164
33 0 15
33 1 87
33 2 88
33 3 86
33 4 314
33 5 213
33 6 48
33 7 278
33 8 72
33 9 240
33 10 139
33 11 229
33 12 9
33 13 280
33 14 48
33 15 261
33 16 201
33 17 169
33 18 175
33 19 162
33 20 78
33 22 32
33 23 216
33 24 26
33 25 295
33 26 69
33 27 176
33 28 292
33 29 180
33 30 312
33 31 15
33 32 211
34 0 235
34 1 85
34 2 210
34 3 183
34 4 150
34 5 42
34 6 201
34 7 311
34 8 126
34 9 283
34 10 31
34 12 18
34 13 128
34 14 72
34 15 23
34 16 119
34 17 59
34 18 49
34 19 222
34 20 305
34 21 190
34 22 122
34 23 272
34 24 85
34 25 304
34 26 193
34 27 238
34 29 320
34 30 105
34 31 71
34 32 260
34 33 84
35 0 73
35 1 150
35 3 292
35 4 267
35 5 135
35 6 16
35 8 44
35 9 181
35 10 113
35 11 97
35 13 270
35 14 119
35 15 120
35 16 89
35 17 236
35 18 44
35 19 136
35 20 130
35 21 165
35 22 257
35 23 65
35 24 23
35 25 104
35 26 18
35 27 80
35 28 147
35 29 134
35 30 51
35 31 108
35 32 225
35 33 4
35 34 167
36 1 84
36 2 43
36 4 277
36 5 167
36 6 320
36 7 176
36 9 13
36 10 317
36 11 262
36 12 151
36 13 301
36 14 110
36 15 27
36 16 226
36 18 188
36 19 67
36 21 264
36 22 298
36 23 12
36 24 248
36 25 28
36 26 200
36 28 203
36 29 180
36 30 157
36 31 174
36 32 36
36 33 16
36 35 304
37 0 185
37 1 57
37 2 180
37 3 175
37 4 3
37 5 94
37 6 246
37 7 278
37 8 264
37 9 249
37 10 72
37 11 139
37 12 11
37 13 41
37 14 149
37 16 83
37 18 185
37 19 58
37 20 309
37 21 271
37 22 304
37 23 149
37 24 157
37 25 190
37 26 11
37 27 37
37 28 92
37 29 231
37 30 29
37 31 111
37 32 79
37 34 280
37 35 318
37 36 79
38 0 93
38 1 313
38 2 20
38 3 31
38 4 194
38 5 127
38 7 159
38 8 117
38 9 215
38 10 121
38 11 82
38 12 77
38 13 247
38 15 31
38 16 205
38 17 222
38 18 211
38 20 211
38 21 103
38 22 229
38 23 243
38 24 89
38 25 219
38 27 108
38 28 10
38 29 177
38 30 107
38 31 93
38 32 317
38 33 153
38 34 238
38 35 223
38 36 256
38 37 263
39 0 103
39 1 41
39 2 37
39 3 117
39 4 60
39 6 131
39 8 117
39 9 112
39 10 242
39 11 120
39 12 127
39 13 167
39 14 47
39 15 36
39 16 1
39 17 227
39 18 142
39 19 235
39 20 319
39 21 281
39 22 173
39 24 222
39 25 101
39 26 142
39 27 137
39 28 319
39 29 254
39 30 303
39 31 142
39 32 15
39 33 17
39 34 48
39 35 2
39 36 165
39 37 49
39 38 151
40 0 181
40 1 196
40 2 168
40 3 221
40 4 111
40 5 114
40 6 139
40 7 228
40 8 35
40 9 142
40 10 118
40 11 280
40 12 216
40 13 303
40 14 106
40 15 184
40 16 240
40 17 39
40 18 50
40 19 62
40 20 278
40 21 312
40 22 104
40 23 170
40 24 152
40 25 148
40 26 293
40 27 82
40 28 158
40 30 187
40 31 298
40 32 308
40 33 194
40 34 61
40 35 30
40 37 310
40 38 282
41 1 204
41 2 254
41 3 265
41 4 280
41 5 84
41 6 126
41 7 82
41 8 147
41 9 32
41 10 309
41 11 315
41 12 67
41 13 65
41 14 158
41 15 115
41 16 152
41 17 227
41 18 297
41 19 144
41 20 301
41 21 3
41 22 78
41 23 281
41 24 206
41 25 186
41 26 294
41 28 170
41 29 45
41 30 280
41 31 16
41 32 199
41 33 242
41 34 107
41 35 10
41 36 177
41 37 193
41 38 180
41 40 272
42 0 105
42 1 113
42 2 272
42 4 146
42 5 210
42 6 273
42 7 158
42 8 211
42 9 176
42 10 192
42 11 305
42 12 66
42 13 150
42 14 263
42 15 85
42 16 236
42 17 154
42 18 72
42 19 17
42 20 308
42 21 301
42 22 307
42 23 29
42 25 149
42 26 43
42 27 23
42 28 76
42 29 79
42 30 246
42 31 288
42 32 286
42 33 51
42 34 173
42 36 83
42 37 10
42 38 64
42 39 287
42 40 112
42 41 287
43 1 235
43 3 100
43 4 182
43 5 150
43 6 253
43 7 4
43 8 175
43 9 229
43 10 142
43 12 202
43 13 305
43 14 14
43 15 270
43 16 175
43 17 267
43 18 285
43 20 39
43 21 175
43 22 2
43 24 63
43 25 253
43 26 40
43 27 192
43 28 45
43 29 241
43 31 150
43 32 140
43 34 107
43 35 43
43 36 317
43 37 181
43 38 253
43 39 311
43 42 133
44 0 243
44 1 241
44 2 3
44 3 73
44 4 26
44 5 118
44 6 233
44 7 38
44 8 290
44 9 186
44 10 284
44 11 66
44 12 14
44 14 112
44 15 145
44 16 161
44 17 219
44 18 184
44 19 298
44 20 240
44 21 45
44 23 246
44 24 260
44 25 248
44 26 150
44 27 152
44 29 140
44 30 71
44 34 222
44 35 244
44 36 132
44 37 89
44 38 174
44 39 35
44 40 188
44 41 185
44 42 189
44 43 237
45 0 256
45 1 163
45 2 177
45 3 207
45 4 294
45 5 294
45 6 250
45 7 119
45 8 94
45 9 55
45 10 168
45 12 284
45 13 288
45 14 247
45 15 306
45 16 154
45 17 309
45 18 95
45 19 23
45 20 106
45 21 8
45 22 9
45 23 221
45 24 310
45 25 64
45 26 208
45 28 283
45 29 205
45 30 83
45 31 130
45 32 111
45 33 249
45 34 316
45 36 236
45 37 86
45 38 246
45 39 6
45 40 126
45 41 22
45 42 165
45 43 17
45 44 147
46 0 243
46 1 88
46 2 61
46 3 313
46 4 153
46 5 230
46 6 67
46 8 290
46 9 36
46 10 244
46 11 241
46 12 217
46 13 221
46 14 239
46 15 228
46 16 9
46 17 93
46 18 163
46 19 151
46 20 13
46 21 284
46 22 257
46 23 41
46 24 229
46 25 57
46 26 252
46 27 236
46 28 310
46 29 162
46 30 201
46 31 140
46 32 10
46 33 29
46 34 193
46 35 280
46 36 273
46 37 309
46 38 3
46 39 32
46 40 119
46 41 111
46 42 105
46 43 35
46 45 272
47 0 269
47 1 268
47 2 151
47 3 30
47 5 180
47 6 115
47 7 177
47 8 162
47 9 32
47 10 83
47 11 142
47 13 172
47 14 124
47 15 78
47 16 292
47 17 275
47 18 152
47 19 130
47 20 287
47 21 13
47 22 60
47 23 107
47 24 213
47 25 252
47 27 26
47 28 128
47 29 206
47 30 13
47 31 223
47 32 236
47 33 213
47 34 91
47 35 265
47 36 213
47 37 161
47 38 169
47 39 64
47 40 139
47 41 293
47 42 30
47 43 281
47 44 185
47 45 226
47 46 91
48 0 266
48 1 241
48 2 179
48 3 67
48 4 265
48 6 15
48 8 303
48 9 173
48 10 173
48 11 258
48 12 100
48 13 267
48 14 140
48 15 272
48 16 226
48 18 77
48 19 84
48 20 73
48 21 34
48 22 135
48 23 264
48 24 201
48 25 292
48 26 238
48 27 153
48 28 197
48 29 73
48 30 160
48 31 19
48 32 269
48 33 275
48 35 16
48 36 269
48 38 9
48 40 175
48 41 78
48 42 156
48 43 247
48 44 267
48 45 115
48 46 248
48 47 72
49 0 214
49 1 62
49 2 72
49 3 31
49 4 312
49 5 1
49 6 301
49 7 167
49 8 209
49 9 108
49 10 184
49 11 180
49 13 102
49 14 146
49 15 130
49 16 274
49 17 297
49 19 15
49 20 167
49 21 218
49 22 115
49 23 273
49 24 55
49 25 242
49 26 252
49 27 258
49 28 113
49 30 295
49 31 45
49 32 94
49 34 135
49 35 57
49 36 4
49 37 147
49 38 139
49 39 209
49 41 191
49 42 111
49 43 40
49 44 303
49 46 112
49 48 81
50 0 149
50 1 149
50 2 184
50 4 70
50 5 245
50 6 131
50 7 146
50 8 182
50 9 198
50 10 290
50 11 145
50 12 307
50 13 106
50 14 254
50 15 171
50 16 103
50 17 82
50 18 124
50 19 180
50 20 161
50 21 127
50 22 312
50 23 310
50 24 72
50 25 65
50 26 218
50 27 309
50 28 187
50 29 271
50 31 68
50 32 205
50 33 23
50 34 193
50 35 28
50 36 53
50 37 178
50 38 46
50 40 156
50 41 297
50 42 63
50 43 146
50 44 88
50 45 75
50 47 125
50 48 161
50 49 187
51 0 130
51 2 201
51 3 292
51 4 310
51 5 7
51 7 68
51 8 162
51 9 133
51 10 286
51 11 29
51 12 42
51 13 115
51 14 54
51 15 205
51 16 85
51 17 276
51 18 25
51 19 85
51 20 140
51 21 59
51 23 291
51 24 190
51 25 258
51 26 121
51 27 301
51 28 279
51 29 33
51 30 242
51 32 244
51 33 64
51 34 174
51 36 78
51 37 208
51 39 218
51 40 314
51 41 109
51 42 65
51 43 113
51 45 151
51 48 228
51 49 256
51 50 246
52 0 137
52 1 45
52 2 59
52 3 282
52 4 53
52 6 206
52 7 288
52 8 36
52 9 34
52 10 266
52 11 38
52 12 155
52 13 46
52 16 253
52 17 260
52 18 136
52 19 113
52 20 100
52 21 14
52 22 191
52 23 207
52 24 168
52 25 272
52 26 157
52 27 212
52 28 13
52 29 289
52 30 192
52 32 201
52 33 25
52 34 245
52 35 102
52 37 123
52 38 71
52 40 9
52 41 109
52 42 185
52 43 83
52 45 229
52 46 89
52 47 253
52 48 233
52 49 62
52 51 300
53 1 40
53 2 228
53 3 151
53 4 175
53 5 238
53 6 214
53 7 69
53 8 65
53 9 103
53 10 224
53 11 200
53 12 16
53 13 271
53 14 143
53 15 148
53 16 269
53 17 242
53 18 195
53 19 316
53 20 110
53 21 289
53 22 111
53 23 293
53 24 233
53 25 57
53 26 46
53 28 139
53 29 115
53 30 214
53 31 137
53 32 198
53 33 50
53 34 225
53 35 297
53 36 123
53 37 279
53 38 97
53 39 277
53 40 64
53 41 66
53 42 87
53 43 234
53 44 250
53 45 242
53 46 35
53 47 240
53 48 125
53 49 40
53 50 15
53 51 274
53 52 96
54 0 283
54 1 244
54 3 95
54 4 212
54 5 201
54 6 284
54 7 213
54 8 18
54 9 170
54 10 25
54 11 304
54 12 45
54 13 73
54 14 83
54 15 293
54 17 102
54 18 79
54 19 24
54 20 207
54 22 105
54 23 68
54 24 288
54 27 74
54 28 35
54 29 260
54 30 210
54 31 195
54 33 166
54 34 276
54 36 152
54 38 102
54 39 108
54 40 124
54 41 55
54 42 26
54 43 228
54 44 195
54 45 248
54 46 265
54 47 198
54 49 42
54 50 101
54 51 80
54 52 283
54 53 43
55 0 288
55 1 100
55 2 145
55 3 82
55 4 221
55 5 88
55 6 237
55 7 304
55 8 69
55 9 149
55 10 74
55 11 54
55 12 284
55 13 237
55 15 213
55 16 238
55 17 86
55 18 290
55 20 193
55 21 118
55 22 270
55 23 124
55 25 96
55 26 96
55 27 15
55 28 224
55 29 304
55 31 154
55 32 34
55 33 231
55 34 268
55 35 313
55 36 80
55 37 177
55 38 72
55 39 49
55 40 304
55 41 93
55 42 319
55 43 280
55 44 40
55 45 233
55 46 138
55 47 148
55 48 181
55 49 248
55 50 97
55 51 89
55 52 115
55 53 314
55 54 34
56 0 239
56 1 246
56 2 166
56 3 273
56 4 189
56 5 201
56 8 50
56 9 93
56 10 192
56 11 96
56 12 185
56 14 17
56 16 305
56 17 128
56 18 221
56 19 90
56 20 116
56 21 111
56 22 171
56 23 112
56 24 53
56 25 282
56 26 259
56 27 202
56 28 205
56 29 36
56 30 117
56 31 273
56 32 184
56 33 149
56 34 270
56 35 119
56 36 247
56 37 192
56 38 87
56 39 241
56 40 146
56 41 84
56 42 4
56 43 289
56 44 106
56 45 19
56 47 195
56 48 292
56 49 149
56 50 212
56 51 222
56 53 247
56 54 183
56 55 144
57 0 1
57 1 222
57 2 58
57 3 58
57 4 235
57 5 214
57 6 123
57 7 40
57 8 99
57 9 122
57 10 198
57 11 162
57 12 280
57 13 202
57 15 169
57 16 169
57 17 54
57 18 62
57 19 288
57 20 267
57 22 163
57 23 80
57 24 277
57 25 190
57 26 94
57 27 249
57 28 195
57 29 295
57 30 96
57 31 172
57 32 258
57 33 129
57 34 165
57 35 316
57 36 195
57 37 234
57 38 100
57 39 209
57 40 145
57 41 212
57 42 255
57 43 155
57 44 127
57 45 81
57 46 23
57 48 292
57 49 59
57 50 254
57 51 245
57 52 93
57 53 157
57 54 219
57 55 214
57 56 313
58 0 191
58 1 171
58 3 114
58 4 154
58 5 309
58 6 170
58 7 270
58 8 196
58 9 84
58 10 159
58 11 262
58 12 130
58 13 204
58 15 131
58 16 81
58 17 263
58 18 107
58 19 26
58 20 125
58 21 50
58 23 229
58 24 116
58 25 319
58 27 90
58 28 291
58 29 176
58 30 274
58 31 136
58 32 88
58 33 80
58 34 282
58 35 50
58 36 141
58 37 109
58 38 283
58 40 174
58 41 307
58 42 117
58 43 270
58 44 255
58 45 73
58 46 267
58 47 249
58 48 178
58 49 256
58 50 314
58 51 278
58 52 19
58 53 232
58 54 301
58 55 299
58 56 157
58 57 211
59 0 61
59 1 111
59 2 189
59 3 99
59 4 319
59 5 11
59 6 160
59 7 128
59 8 41
59 9 77
59 11 34
59 12 299
59 13 237
59 14 199
59 15 150
59 16 84
59 17 181
59 18 72
59 19 161
59 21 240
59 22 305
59 23 111
59 24 218
59 25 176
59 27 22
59 28 74
59 29 132
59 30 180
59 31 76
59 32 124
59 33 130
59 34 83
59 35 8
59 36 290
59 37 259
59 38 28
59 39 200
59 40 254
59 41 202
59 42 227
59 43 119
59 45 194
59 46 178
59 49 154
59 50 269
59 51 14
59 52 271
59 53 163
59 55 286
59 56 248
59 57 13
59 58 197
60 0 156
60 1 169
60 2 281
60 3 273
60 4 142
60 5 83
60 7 193
60 8 281
60 9 162
60 10 49
60 11 305
60 12 319
60 13 245
60 14 260
60 15 125
60 16 53
60 17 59
60 18 187
60 19 15
60 21 229
60 23 70
60 24 266
60 25 112
60 26 95
60 29 222
60 30 320
60 31 126
60 33 279
60 34 101
60 35 259
60 37 298
60 39 140
60 41 270
60 42 147
60 43 70
60 46 21
60 47 184
60 48 272
60 49 176
60 50 57
60 52 18
60 53 260
60 54 174
60 55 178
60 56 300
60 57 270
60 59 164
61 0 29
61 1 36
61 2 151
61 3 144
61 4 96
61 5 22
61 7 94
61 8 188
61 9 223
61 10 227
61 12 284
61 14 165
61 15 69
61 16 195
61 17 300
61 18 241
61 19 23
61 20 48
61 21 298
61 22 320
61 23 202
61 24 290
61 25 91
61 26 252
61 27 92
61 28 101
61 29 242
61 30 43
61 31 122
61 32 131
61 33 153
61 34 108
61 35 306
61 36 108
61 37 113
61 38 167
61 39 251
61 40 304
61 41 284
61 42 282
61 43 116
61 46 256
61 47 213
61 48 239
61 49 100
61 50 293
61 51 111
61 52 153
61 53 32
61 54 61
61 55 159
61 56 303
61 57 210
61 58 282
61 59 104
61 60 304
62 0 299
62 2 155
62 3 96
62 4 258
62 5 265
62 6 257
62 7 11
62 8 66
62 9 303
62 10 258
62 11 260
62 12 209
62 14 206
62 16 171
62 17 223
62 18 1
62 19 60
62 20 76
62 21 239
62 22 104
62 23 169
62 24 151
62 25 281
62 26 68
62 27 92
62 28 53
62 29 57
62 31 316
62 32 242
62 33 201
62 34 105
62 35 225
62 36 80
62 37 138
62 38 296
62 39 310
62 40 121
62 41 237
62 42 269
62 43 194
62 44 132
62 45 306
62 46 300
62 47 291
62 48 315
62 49 144
62 50 141
62 51 76
62 52 302
62 53 105
62 54 195
62 55 236
62 57 143
62 58 81
62 59 125
62 61 254
63 0 140
63 1 92
63 2 208
63 4 13
63 5 176
63 6 91
63 7 230
63 8 192
63 9 304
63 10 190
63 11 312
63 12 146
63 13 145
63 15 73
63 16 309
63 18 56
63 19 188
63 21 26
63 22 145
63 23 202
63 24 112
63 25 229
63 26 77
63 27 19
63 28 19
63 29 120
63 30 251
63 31 309
63 32 316
63 33 76
63 34 157
63 35 189
63 37 153
63 38 116
63 39 121
63 40 193
63 41 204
63 42 258
63 43 290
63 44 311
63 45 304
63 46 266
63 47 143
63 48 30
63 49 167
63 50 83
63 51 167
63 52 195
63 53 163
63 54 306
63 55 234
63 56 154
63 57 206
63 58 45
63 59 49
63 60 126
63 61 117
63 62 88
64 0 164
64 1 164
64 2 225
64 3 313
64 4 264
64 5 220
64 6 58
64 7 179
64 8 154
64 9 95
64 10 118
64 11 31
64 12 309
64 13 111
64 14 284
64 15 61
64 16 217
64 17 155
64 18 314
64 19 254
64 20 179
64 21 12
64 22 297
64 23 242
64 24 154
64 25 99
64 26 307
64 27 315
64 28 192
64 29 203
64 30 137
64 31 120
64 33 136
64 34 88
64 35 286
64 36 229
64 37 114
64 38 263
64 39 117
64 40 261
64 41 99
64 42 48
64 43 281
64 45 275
64 46 138
64 47 66
64 48 47
64 49 192
64 50 312
64 51 199
64 52 147
64 53 129
64 54 259
64 55 199
64 56 191
64 57 283
64 58 159
64 60 127
64 61 167
64 62 39
64 63 85
65 0 281
65 1 9
65 3 245
65 4 270
65 5 4
65 6 54
65 7 130
65 8 190
65 9 203
65 10 285
65 11 284
65 12 302
65 13 240
65 14 54
65 15 26
65 16 72
65 17 212
65 18 132
65 19 22
65 20 139
65 21 96
65 22 21
65 23 216
65 24 282
65 25 292
65 26 115
65 27 179
65 28 190
65 29 223
65 30 108
65 31 129
65 32 103
65 33 158
65 34 195
65 35 311
65 36 77
65 37 305
65 38 188
65 39 12
65 40 213
65 41 254
65 42 23
65 43 150
65 44 117
65 46 60
65 47 55
65 49 102
65 50 224
65 51 75
65 53 160
65 55 63
65 56 197
65 57 276
65 59 293
65 60 173
65 61 163
65 62 108
65 63 226
65 64 12
66 0 291
66 1 310
66 2 152
66 3 15
66 4 277
66 5 268
66 6 303
66 7 314
66 10 239
66 12 223
66 13 188
66 14 33
66 16 258
66 17 116
66 18 47
66 19 292
66 20 204
66 21 7
66 22 295
66 23 185
66 24 274
66 25 153
66 26 90
66 27 53
66 28 14
66 30 193
66 31 288
66 32 264
66 33 82
66 34 104
66 35 256
66 37 137
66 38 314
66 39 193
66 40 217
66 41 77
66 42 107
66 43 152
66 44 190
66 45 221
66 46 232
66 47 99
66 48 33
66 49 35
66 50 269
66 51 305
66 52 60
66 53 253
66 54 69
66 55 304
66 56 218
66 57 194
66 58 222
66 59 64
66 60 30
66 61 105
66 62 285
66 63 79
66 64 72
66 65 257
67 0 199
67 1 294
67 2 52
67 3 104
67 4 130
67 5 108
67 6 140
67 7 264
67 8 178
67 10 274
67 11 290
67 12 49
67 13 260
67 15 68
67 16 207
67 17 280
67 18 104
67 19 203
67 21 168
67 23 160
67 25 132
67 26 130
67 27 112
67 28 156
67 29 214
67 30 190
67 31 108
67 32 264
67 33 289
67 34 260
67 35 270
67 36 272
67 37 113
67 39 160
67 40 254
67 41 71
67 42 143
67 43 26
67 44 312
67 45 283
67 46 248
67 47 50
67 48 66
67 49 290
67 50 317
67 53 242
67 54 170
67 55 121
67 56 258
67 57 224
67 58 138
67 59 71
67 60 288
67 61 58
67 62 221
67 63 54
67 65 199
67 66 58
68 0 251
68 1 269
68 2 127
68 3 208
68 4 108
68 5 60
68 6 179
68 7 296
68 9 60
68 10 8
68 13 149
68 14 25
68 15 6
68 16 64
68 17 291
68 18 288
68 19 233
68 20 300
68 21 225
68 22 239
68 23 209
68 24 250
68 25 218
68 26 194
68 27 29
68 28 295
68 29 175
68 30 38
68 31 197
68 32 290
68 33 128
68 34 276
68 35 233
68 36 164
68 37 260
68 38 182
68 39 274
68 40 225
68 41 105
68 42 279
68 43 25
68 46 119
68 47 148
68 48 103
68 49 12
68 50 292
68 51 236
68 52 283
68 54 74
68 55 309
68 56 116
68 57 243
68 58 288
68 60 61
68 61 137
68 62 160
68 63 82
68 64 265
68 65 6
68 66 249
68 67 152
69 0 88
69 1 16
69 3 69
69 4 220
69 5 88
69 6 293
69 7 283
69 8 58
69 9 91
69 10 274
69 11 271
69 12 123
69 13 253
69 14 316
69 15 9
69 16 317
69 17 97
69 18 105
69 19 118
69 20 208
69 21 173
69 22 29
69 23 253
69 24 306
69 25 142
69 26 178
69 27 227
69 28 287
69 29 159
69 30 75
69 31 122
69 32 94
69 33 71
69 34 179
69 35 182
69 36 42
69 37 314
69 39 187
69 40 255
69 41 177
69 42 194
69 43 278
69 45 183
69 47 271
69 48 187
69 49 300
69 50 14
69 51 269
69 52 43
69 54 62
69 55 312
69 56 272
69 57 101
69 58 10
69 59 238
69 60 231
69 61 307
69 62 230
69 63 12
69 64 255
69 65 185
69 66 11
69 67 174
69 68 138
